c Standarized MaxSat Instance
c{
c "sha1sum": "f699ad1b4e8d47359eaadcc6041506fc64decafb",
c "nvars": 40,
c "ncls": 646,
c "nhards": 0,
c "nhard_len_stats":
c    { "min": 0, "max": 0, "ave": 0.00,
c      "stddev": 0.00 },
c "nsofts": 646,
c "nsoft_len_stats":
c    { "min": 2, "max": 2, "ave": 2.00,
c      "stddev": 0.00 },
c "nsoft_wts": 10,
c "soft_wt_stats":
c    { "min": 1, "max": 10, "ave": 5.74,
c      "stddev": 2.89 }
c}
c------------------------------------------------------------
c File:  c-fat200-5.clq
c
c Source: Panos Pardalos pardalos@math.ufl.edu
c
c Reference: P. Berman and A. Pelc, Distributed Fault Diagnosis for
c            Multiprocessor Systems, Proceedings of the 20th Annual
c            International Symposium on Fault-Tolerant Computing
c            Newcastle, UK, 340-346 (1990)
c
p wcnf 40 646 3707
9 1 4 0
9 -1 -4 0
4 1 5 0
4 -1 -5 0
8 1 8 0
8 -1 -8 0
8 1 11 0
8 -1 -11 0
10 1 12 0
10 -1 -12 0
2 1 15 0
2 -1 -15 0
4 1 18 0
4 -1 -18 0
8 1 19 0
8 -1 -19 0
3 1 22 0
3 -1 -22 0
6 1 25 0
6 -1 -25 0
5 1 26 0
5 -1 -26 0
7 1 29 0
7 -1 -29 0
4 1 32 0
4 -1 -32 0
6 1 33 0
6 -1 -33 0
10 1 36 0
10 -1 -36 0
10 1 39 0
10 -1 -39 0
7 1 40 0
7 -1 -40 0
8 2 5 0
8 -2 -5 0
2 2 6 0
2 -2 -6 0
7 2 9 0
7 -2 -9 0
1 2 12 0
1 -2 -12 0
3 2 13 0
3 -2 -13 0
2 2 16 0
2 -2 -16 0
9 2 19 0
9 -2 -19 0
2 2 20 0
2 -2 -20 0
5 2 23 0
5 -2 -23 0
2 2 26 0
2 -2 -26 0
2 2 27 0
2 -2 -27 0
10 2 30 0
10 -2 -30 0
3 2 33 0
3 -2 -33 0
6 2 34 0
6 -2 -34 0
9 2 37 0
9 -2 -37 0
7 2 40 0
7 -2 -40 0
3 3 6 0
3 -3 -6 0
7 3 7 0
7 -3 -7 0
6 3 10 0
6 -3 -10 0
5 3 13 0
5 -3 -13 0
10 3 14 0
10 -3 -14 0
3 3 17 0
3 -3 -17 0
8 3 20 0
8 -3 -20 0
6 3 21 0
6 -3 -21 0
8 3 24 0
8 -3 -24 0
5 3 27 0
5 -3 -27 0
9 3 28 0
9 -3 -28 0
3 3 31 0
3 -3 -31 0
4 3 34 0
4 -3 -34 0
9 3 35 0
9 -3 -35 0
10 3 38 0
10 -3 -38 0
1 4 7 0
1 -4 -7 0
10 4 8 0
10 -4 -8 0
6 4 11 0
6 -4 -11 0
1 4 14 0
1 -4 -14 0
2 4 15 0
2 -4 -15 0
7 4 18 0
7 -4 -18 0
9 4 21 0
9 -4 -21 0
4 4 22 0
4 -4 -22 0
1 4 25 0
1 -4 -25 0
1 4 28 0
1 -4 -28 0
5 4 29 0
5 -4 -29 0
1 4 32 0
1 -4 -32 0
3 4 35 0
3 -4 -35 0
10 4 36 0
10 -4 -36 0
10 4 39 0
10 -4 -39 0
9 5 8 0
9 -5 -8 0
3 5 9 0
3 -5 -9 0
6 5 12 0
6 -5 -12 0
4 5 15 0
4 -5 -15 0
8 5 16 0
8 -5 -16 0
6 5 19 0
6 -5 -19 0
7 5 22 0
7 -5 -22 0
6 5 23 0
6 -5 -23 0
1 5 26 0
1 -5 -26 0
5 5 29 0
5 -5 -29 0
10 5 30 0
10 -5 -30 0
10 5 33 0
10 -5 -33 0
8 5 36 0
8 -5 -36 0
3 5 37 0
3 -5 -37 0
8 5 40 0
8 -5 -40 0
7 6 9 0
7 -6 -9 0
4 6 10 0
4 -6 -10 0
7 6 13 0
7 -6 -13 0
2 6 16 0
2 -6 -16 0
5 6 17 0
5 -6 -17 0
9 6 20 0
9 -6 -20 0
9 6 23 0
9 -6 -23 0
4 6 24 0
4 -6 -24 0
3 6 27 0
3 -6 -27 0
9 6 30 0
9 -6 -30 0
4 6 31 0
4 -6 -31 0
7 6 34 0
7 -6 -34 0
10 6 37 0
10 -6 -37 0
6 6 38 0
6 -6 -38 0
7 7 10 0
7 -7 -10 0
9 7 11 0
9 -7 -11 0
5 7 14 0
5 -7 -14 0
10 7 17 0
10 -7 -17 0
4 7 18 0
4 -7 -18 0
9 7 21 0
9 -7 -21 0
7 7 24 0
7 -7 -24 0
10 7 25 0
10 -7 -25 0
5 7 28 0
5 -7 -28 0
3 7 31 0
3 -7 -31 0
10 7 32 0
10 -7 -32 0
10 7 35 0
10 -7 -35 0
2 7 38 0
2 -7 -38 0
9 7 39 0
9 -7 -39 0
7 8 11 0
7 -8 -11 0
5 8 12 0
5 -8 -12 0
7 8 15 0
7 -8 -15 0
3 8 18 0
3 -8 -18 0
8 8 19 0
8 -8 -19 0
4 8 22 0
4 -8 -22 0
5 8 25 0
5 -8 -25 0
3 8 26 0
3 -8 -26 0
2 8 29 0
2 -8 -29 0
3 8 32 0
3 -8 -32 0
6 8 33 0
6 -8 -33 0
5 8 36 0
5 -8 -36 0
2 8 39 0
2 -8 -39 0
10 8 40 0
10 -8 -40 0
2 9 12 0
2 -9 -12 0
2 9 13 0
2 -9 -13 0
5 9 16 0
5 -9 -16 0
8 9 19 0
8 -9 -19 0
10 9 20 0
10 -9 -20 0
10 9 23 0
10 -9 -23 0
7 9 26 0
7 -9 -26 0
4 9 27 0
4 -9 -27 0
8 9 30 0
8 -9 -30 0
4 9 33 0
4 -9 -33 0
3 9 34 0
3 -9 -34 0
3 9 37 0
3 -9 -37 0
6 9 40 0
6 -9 -40 0
3 10 13 0
3 -10 -13 0
2 10 14 0
2 -10 -14 0
8 10 17 0
8 -10 -17 0
2 10 20 0
2 -10 -20 0
8 10 21 0
8 -10 -21 0
2 10 24 0
2 -10 -24 0
8 10 27 0
8 -10 -27 0
1 10 28 0
1 -10 -28 0
10 10 31 0
10 -10 -31 0
1 10 34 0
1 -10 -34 0
6 10 35 0
6 -10 -35 0
2 10 38 0
2 -10 -38 0
3 11 14 0
3 -11 -14 0
8 11 15 0
8 -11 -15 0
8 11 18 0
8 -11 -18 0
7 11 21 0
7 -11 -21 0
10 11 22 0
10 -11 -22 0
7 11 25 0
7 -11 -25 0
8 11 28 0
8 -11 -28 0
1 11 29 0
1 -11 -29 0
2 11 32 0
2 -11 -32 0
6 11 35 0
6 -11 -35 0
1 11 36 0
1 -11 -36 0
1 11 39 0
1 -11 -39 0
3 12 15 0
3 -12 -15 0
5 12 16 0
5 -12 -16 0
9 12 19 0
9 -12 -19 0
6 12 22 0
6 -12 -22 0
8 12 23 0
8 -12 -23 0
1 12 26 0
1 -12 -26 0
2 12 29 0
2 -12 -29 0
10 12 30 0
10 -12 -30 0
3 12 33 0
3 -12 -33 0
9 12 36 0
9 -12 -36 0
2 12 37 0
2 -12 -37 0
10 12 40 0
10 -12 -40 0
1 13 16 0
1 -13 -16 0
9 13 17 0
9 -13 -17 0
1 13 20 0
1 -13 -20 0
1 13 23 0
1 -13 -23 0
10 13 24 0
10 -13 -24 0
6 13 27 0
6 -13 -27 0
2 13 30 0
2 -13 -30 0
2 13 31 0
2 -13 -31 0
4 13 34 0
4 -13 -34 0
10 13 37 0
10 -13 -37 0
9 13 38 0
9 -13 -38 0
4 14 17 0
4 -14 -17 0
6 14 18 0
6 -14 -18 0
6 14 21 0
6 -14 -21 0
5 14 24 0
5 -14 -24 0
7 14 25 0
7 -14 -25 0
1 14 28 0
1 -14 -28 0
6 14 31 0
6 -14 -31 0
8 14 32 0
8 -14 -32 0
4 14 35 0
4 -14 -35 0
10 14 38 0
10 -14 -38 0
6 14 39 0
6 -14 -39 0
9 15 18 0
9 -15 -18 0
8 15 19 0
8 -15 -19 0
7 15 22 0
7 -15 -22 0
1 15 25 0
1 -15 -25 0
8 15 26 0
8 -15 -26 0
9 15 29 0
9 -15 -29 0
10 15 32 0
10 -15 -32 0
9 15 33 0
9 -15 -33 0
9 15 36 0
9 -15 -36 0
10 15 39 0
10 -15 -39 0
8 15 40 0
8 -15 -40 0
10 16 19 0
10 -16 -19 0
10 16 20 0
10 -16 -20 0
7 16 23 0
7 -16 -23 0
5 16 26 0
5 -16 -26 0
2 16 27 0
2 -16 -27 0
9 16 30 0
9 -16 -30 0
9 16 33 0
9 -16 -33 0
1 16 34 0
1 -16 -34 0
7 16 37 0
7 -16 -37 0
3 16 40 0
3 -16 -40 0
7 17 20 0
7 -17 -20 0
3 17 21 0
3 -17 -21 0
8 17 24 0
8 -17 -24 0
4 17 27 0
4 -17 -27 0
4 17 28 0
4 -17 -28 0
3 17 31 0
3 -17 -31 0
1 17 34 0
1 -17 -34 0
7 17 35 0
7 -17 -35 0
3 17 38 0
3 -17 -38 0
7 18 21 0
7 -18 -21 0
6 18 22 0
6 -18 -22 0
10 18 25 0
10 -18 -25 0
3 18 28 0
3 -18 -28 0
6 18 29 0
6 -18 -29 0
8 18 32 0
8 -18 -32 0
2 18 35 0
2 -18 -35 0
5 18 36 0
5 -18 -36 0
6 18 39 0
6 -18 -39 0
10 19 22 0
10 -19 -22 0
5 19 23 0
5 -19 -23 0
4 19 26 0
4 -19 -26 0
9 19 29 0
9 -19 -29 0
5 19 30 0
5 -19 -30 0
1 19 33 0
1 -19 -33 0
4 19 36 0
4 -19 -36 0
6 19 37 0
6 -19 -37 0
9 19 40 0
9 -19 -40 0
3 20 23 0
3 -20 -23 0
7 20 24 0
7 -20 -24 0
5 20 27 0
5 -20 -27 0
5 20 30 0
5 -20 -30 0
4 20 31 0
4 -20 -31 0
8 20 34 0
8 -20 -34 0
2 20 37 0
2 -20 -37 0
7 20 38 0
7 -20 -38 0
1 21 24 0
1 -21 -24 0
5 21 25 0
5 -21 -25 0
7 21 28 0
7 -21 -28 0
7 21 31 0
7 -21 -31 0
7 21 32 0
7 -21 -32 0
4 21 35 0
4 -21 -35 0
2 21 38 0
2 -21 -38 0
7 21 39 0
7 -21 -39 0
7 22 25 0
7 -22 -25 0
8 22 26 0
8 -22 -26 0
4 22 29 0
4 -22 -29 0
8 22 32 0
8 -22 -32 0
3 22 33 0
3 -22 -33 0
10 22 36 0
10 -22 -36 0
7 22 39 0
7 -22 -39 0
7 22 40 0
7 -22 -40 0
3 23 26 0
3 -23 -26 0
6 23 27 0
6 -23 -27 0
1 23 30 0
1 -23 -30 0
3 23 33 0
3 -23 -33 0
9 23 34 0
9 -23 -34 0
7 23 37 0
7 -23 -37 0
1 23 40 0
1 -23 -40 0
2 24 27 0
2 -24 -27 0
4 24 28 0
4 -24 -28 0
6 24 31 0
6 -24 -31 0
6 24 34 0
6 -24 -34 0
7 24 35 0
7 -24 -35 0
3 24 38 0
3 -24 -38 0
8 25 28 0
8 -25 -28 0
3 25 29 0
3 -25 -29 0
4 25 32 0
4 -25 -32 0
2 25 35 0
2 -25 -35 0
10 25 36 0
10 -25 -36 0
1 25 39 0
1 -25 -39 0
9 26 29 0
9 -26 -29 0
4 26 30 0
4 -26 -30 0
2 26 33 0
2 -26 -33 0
5 26 36 0
5 -26 -36 0
10 26 37 0
10 -26 -37 0
10 26 40 0
10 -26 -40 0
8 27 30 0
8 -27 -30 0
7 27 31 0
7 -27 -31 0
2 27 34 0
2 -27 -34 0
7 27 37 0
7 -27 -37 0
4 27 38 0
4 -27 -38 0
8 28 31 0
8 -28 -31 0
10 28 32 0
10 -28 -32 0
10 28 35 0
10 -28 -35 0
9 28 38 0
9 -28 -38 0
3 28 39 0
3 -28 -39 0
8 29 32 0
8 -29 -32 0
6 29 33 0
6 -29 -33 0
3 29 36 0
3 -29 -36 0
10 29 39 0
10 -29 -39 0
10 29 40 0
10 -29 -40 0
9 30 33 0
9 -30 -33 0
5 30 34 0
5 -30 -34 0
6 30 37 0
6 -30 -37 0
2 30 40 0
2 -30 -40 0
3 31 34 0
3 -31 -34 0
9 31 35 0
9 -31 -35 0
5 31 38 0
5 -31 -38 0
5 32 35 0
5 -32 -35 0
9 32 36 0
9 -32 -36 0
5 32 39 0
5 -32 -39 0
3 33 36 0
3 -33 -36 0
2 33 37 0
2 -33 -37 0
7 33 40 0
7 -33 -40 0
8 34 37 0
8 -34 -37 0
2 34 38 0
2 -34 -38 0
7 35 38 0
7 -35 -38 0
5 35 39 0
5 -35 -39 0
9 36 39 0
9 -36 -39 0
8 36 40 0
8 -36 -40 0
2 37 40 0
2 -37 -40 0
